% Auto-generated by scripts/generate_dzn.py
% problem_type   = regex
% instance       = regex_41
% source_json    = instances_json/2_high_blowup/regex_41.json
% blowup         = 23.46153846153846
% representation = DFA

mode = 0;

var_count = 14;
Q = 305;
S = 2;
q0 = 1;
F = {189, 190, 191, 192, 193, 194, 195, 196, 197, 198, 199, 200, 201, 202, 203, 204, 205, 206, 207, 208, 209, 210, 211, 212, 213, 214, 215, 216, 217, 218, 219, 220, 221, 222, 223, 224, 225, 226, 227, 228, 229, 230, 231, 232, 233, 234, 235, 236, 237, 238, 239, 240, 241, 242, 243, 244, 245, 246, 247, 248, 249, 250, 251, 252, 253, 254, 255, 256, 257, 258, 259, 260, 261, 262, 263, 264, 265, 266, 267, 268, 269, 270, 271, 272, 273, 274, 275, 276, 277, 278, 279, 280, 281, 282, 283, 284, 285, 286, 287, 288, 289, 290, 291, 292, 293, 294, 295, 296, 297, 298, 299, 300, 301, 302, 303, 304, 305};
d_dfa = array2d(1..305, 1..2, [
  2, 1,
  3, 1,
  4, 1,
  6, 5,
  8, 7,
  10, 9,
  12, 11,
  13, 11,
  15, 14,
  17, 16,
  19, 18,
  20, 18,
  21, 18,
  23, 22,
  24, 22,
  26, 25,
  28, 27,
  30, 29,
  31, 29,
  32, 29,
  34, 33,
  36, 35,
  37, 35,
  38, 35,
  40, 39,
  41, 39,
  43, 42,
  45, 44,
  47, 46,
  48, 46,
  49, 46,
  51, 50,
  53, 52,
  55, 54,
  57, 56,
  58, 56,
  59, 56,
  61, 60,
  63, 62,
  64, 62,
  65, 62,
  67, 66,
  68, 66,
  70, 69,
  72, 71,
  74, 73,
  75, 73,
  76, 73,
  78, 77,
  80, 79,
  82, 81,
  84, 83,
  85, 83,
  87, 86,
  89, 88,
  91, 90,
  92, 90,
  93, 90,
  95, 94,
  97, 96,
  99, 98,
  101, 100,
  102, 100,
  103, 100,
  105, 104,
  107, 106,
  108, 106,
  109, 106,
  111, 110,
  112, 110,
  114, 113,
  116, 115,
  118, 117,
  119, 117,
  120, 117,
  122, 121,
  124, 123,
  126, 125,
  128, 127,
  129, 127,
  131, 130,
  133, 132,
  135, 134,
  136, 134,
  137, 134,
  139, 138,
  140, 138,
  142, 141,
  144, 143,
  146, 145,
  147, 145,
  148, 145,
  150, 149,
  152, 151,
  154, 153,
  156, 155,
  157, 155,
  159, 158,
  161, 160,
  163, 162,
  164, 162,
  165, 162,
  167, 166,
  169, 168,
  171, 170,
  173, 172,
  174, 172,
  175, 172,
  177, 176,
  179, 178,
  180, 178,
  181, 178,
  183, 182,
  184, 182,
  186, 185,
  188, 187,
  190, 189,
  191, 189,
  192, 189,
  194, 193,
  196, 195,
  198, 197,
  200, 199,
  201, 199,
  203, 202,
  205, 204,
  207, 206,
  208, 206,
  209, 206,
  211, 210,
  212, 210,
  214, 213,
  216, 215,
  218, 217,
  219, 217,
  220, 217,
  222, 221,
  224, 223,
  225, 223,
  226, 223,
  228, 227,
  229, 227,
  231, 230,
  233, 232,
  235, 234,
  236, 234,
  237, 234,
  239, 238,
  241, 240,
  243, 242,
  245, 244,
  246, 244,
  248, 247,
  250, 249,
  252, 251,
  253, 251,
  254, 251,
  256, 255,
  257, 255,
  259, 258,
  261, 260,
  263, 262,
  264, 262,
  265, 262,
  267, 266,
  269, 268,
  271, 270,
  273, 272,
  274, 272,
  276, 275,
  278, 277,
  280, 279,
  281, 279,
  282, 279,
  284, 283,
  286, 285,
  288, 287,
  290, 289,
  291, 289,
  292, 289,
  294, 293,
  296, 295,
  297, 295,
  298, 295,
  300, 299,
  301, 299,
  303, 302,
  305, 304,
  2, 1,
  3, 1,
  4, 1,
  6, 5,
  8, 7,
  10, 9,
  12, 11,
  13, 11,
  15, 14,
  17, 16,
  19, 18,
  20, 18,
  21, 18,
  23, 22,
  24, 22,
  26, 25,
  28, 27,
  30, 29,
  31, 29,
  32, 29,
  34, 33,
  36, 35,
  37, 35,
  38, 35,
  40, 39,
  41, 39,
  43, 42,
  45, 44,
  47, 46,
  48, 46,
  49, 46,
  51, 50,
  53, 52,
  55, 54,
  57, 56,
  58, 56,
  59, 56,
  61, 60,
  63, 62,
  64, 62,
  65, 62,
  67, 66,
  68, 66,
  70, 69,
  72, 71,
  190, 189,
  191, 189,
  192, 189,
  194, 193,
  196, 195,
  198, 197,
  200, 199,
  201, 199,
  203, 202,
  205, 204,
  207, 206,
  208, 206,
  209, 206,
  211, 210,
  212, 210,
  214, 213,
  216, 215,
  218, 217,
  219, 217,
  220, 217,
  222, 221,
  224, 223,
  225, 223,
  226, 223,
  228, 227,
  229, 227,
  231, 230,
  233, 232,
  235, 234,
  236, 234,
  237, 234,
  239, 238,
  241, 240,
  243, 242,
  245, 244,
  246, 244,
  248, 247,
  250, 249,
  252, 251,
  253, 251,
  254, 251,
  256, 255,
  257, 255,
  259, 258,
  261, 260,
  263, 262,
  264, 262,
  265, 262,
  267, 266,
  269, 268,
  271, 270,
  273, 272,
  274, 272,
  276, 275,
  278, 277,
  280, 279,
  281, 279,
  282, 279,
  284, 283,
  286, 285,
  288, 287,
  290, 289,
  291, 289,
  292, 289,
  294, 293,
  296, 295,
  297, 295,
  298, 295,
  300, 299,
  301, 299,
  303, 302,
  305, 304
]);
d_nfa = array2d(1..305, 1..2, [
  {}, {},
  {}, {},
  {}, {},
  {}, {},
  {}, {},
  {}, {},
  {}, {},
  {}, {},
  {}, {},
  {}, {},
  {}, {},
  {}, {},
  {}, {},
  {}, {},
  {}, {},
  {}, {},
  {}, {},
  {}, {},
  {}, {},
  {}, {},
  {}, {},
  {}, {},
  {}, {},
  {}, {},
  {}, {},
  {}, {},
  {}, {},
  {}, {},
  {}, {},
  {}, {},
  {}, {},
  {}, {},
  {}, {},
  {}, {},
  {}, {},
  {}, {},
  {}, {},
  {}, {},
  {}, {},
  {}, {},
  {}, {},
  {}, {},
  {}, {},
  {}, {},
  {}, {},
  {}, {},
  {}, {},
  {}, {},
  {}, {},
  {}, {},
  {}, {},
  {}, {},
  {}, {},
  {}, {},
  {}, {},
  {}, {},
  {}, {},
  {}, {},
  {}, {},
  {}, {},
  {}, {},
  {}, {},
  {}, {},
  {}, {},
  {}, {},
  {}, {},
  {}, {},
  {}, {},
  {}, {},
  {}, {},
  {}, {},
  {}, {},
  {}, {},
  {}, {},
  {}, {},
  {}, {},
  {}, {},
  {}, {},
  {}, {},
  {}, {},
  {}, {},
  {}, {},
  {}, {},
  {}, {},
  {}, {},
  {}, {},
  {}, {},
  {}, {},
  {}, {},
  {}, {},
  {}, {},
  {}, {},
  {}, {},
  {}, {},
  {}, {},
  {}, {},
  {}, {},
  {}, {},
  {}, {},
  {}, {},
  {}, {},
  {}, {},
  {}, {},
  {}, {},
  {}, {},
  {}, {},
  {}, {},
  {}, {},
  {}, {},
  {}, {},
  {}, {},
  {}, {},
  {}, {},
  {}, {},
  {}, {},
  {}, {},
  {}, {},
  {}, {},
  {}, {},
  {}, {},
  {}, {},
  {}, {},
  {}, {},
  {}, {},
  {}, {},
  {}, {},
  {}, {},
  {}, {},
  {}, {},
  {}, {},
  {}, {},
  {}, {},
  {}, {},
  {}, {},
  {}, {},
  {}, {},
  {}, {},
  {}, {},
  {}, {},
  {}, {},
  {}, {},
  {}, {},
  {}, {},
  {}, {},
  {}, {},
  {}, {},
  {}, {},
  {}, {},
  {}, {},
  {}, {},
  {}, {},
  {}, {},
  {}, {},
  {}, {},
  {}, {},
  {}, {},
  {}, {},
  {}, {},
  {}, {},
  {}, {},
  {}, {},
  {}, {},
  {}, {},
  {}, {},
  {}, {},
  {}, {},
  {}, {},
  {}, {},
  {}, {},
  {}, {},
  {}, {},
  {}, {},
  {}, {},
  {}, {},
  {}, {},
  {}, {},
  {}, {},
  {}, {},
  {}, {},
  {}, {},
  {}, {},
  {}, {},
  {}, {},
  {}, {},
  {}, {},
  {}, {},
  {}, {},
  {}, {},
  {}, {},
  {}, {},
  {}, {},
  {}, {},
  {}, {},
  {}, {},
  {}, {},
  {}, {},
  {}, {},
  {}, {},
  {}, {},
  {}, {},
  {}, {},
  {}, {},
  {}, {},
  {}, {},
  {}, {},
  {}, {},
  {}, {},
  {}, {},
  {}, {},
  {}, {},
  {}, {},
  {}, {},
  {}, {},
  {}, {},
  {}, {},
  {}, {},
  {}, {},
  {}, {},
  {}, {},
  {}, {},
  {}, {},
  {}, {},
  {}, {},
  {}, {},
  {}, {},
  {}, {},
  {}, {},
  {}, {},
  {}, {},
  {}, {},
  {}, {},
  {}, {},
  {}, {},
  {}, {},
  {}, {},
  {}, {},
  {}, {},
  {}, {},
  {}, {},
  {}, {},
  {}, {},
  {}, {},
  {}, {},
  {}, {},
  {}, {},
  {}, {},
  {}, {},
  {}, {},
  {}, {},
  {}, {},
  {}, {},
  {}, {},
  {}, {},
  {}, {},
  {}, {},
  {}, {},
  {}, {},
  {}, {},
  {}, {},
  {}, {},
  {}, {},
  {}, {},
  {}, {},
  {}, {},
  {}, {},
  {}, {},
  {}, {},
  {}, {},
  {}, {},
  {}, {},
  {}, {},
  {}, {},
  {}, {},
  {}, {},
  {}, {},
  {}, {},
  {}, {},
  {}, {},
  {}, {},
  {}, {},
  {}, {},
  {}, {},
  {}, {},
  {}, {},
  {}, {},
  {}, {},
  {}, {},
  {}, {},
  {}, {},
  {}, {},
  {}, {},
  {}, {},
  {}, {},
  {}, {},
  {}, {},
  {}, {},
  {}, {},
  {}, {},
  {}, {},
  {}, {},
  {}, {},
  {}, {},
  {}, {},
  {}, {},
  {}, {}
]);
